      -----------------------------------------------------------      
     |                   =====================                   |     
     |                           x T B                           |     
     |                   =====================                   |     
     |                         S. Grimme                         |     
     |          Mulliken Center for Theoretical Chemistry        |     
     |                    University of Bonn                     |     
      -----------------------------------------------------------      

   * xtb version 6.7.1 (edcfbbe) compiled by 'albert@albert-system' on 2024-07-22

   xtb is free software: you can redistribute it and/or modify it under
   the terms of the GNU Lesser General Public License as published by
   the Free Software Foundation, either version 3 of the License, or
   (at your option) any later version.
   
   xtb is distributed in the hope that it will be useful,
   but WITHOUT ANY WARRANTY; without even the implied warranty of
   MERCHANTABILITY or FITNESS FOR A PARTICULAR PURPOSE.  See the
   GNU Lesser General Public License for more details.
   
   Cite this work as:
   * C. Bannwarth, E. Caldeweyher, S. Ehlert, A. Hansen, P. Pracht,
     J. Seibert, S. Spicher, S. Grimme, WIREs Comput. Mol. Sci., 2020, 11,
     e01493. DOI: 10.1002/wcms.1493
   
   for GFN2-xTB:
   * C. Bannwarth, S. Ehlert and S. Grimme., J. Chem. Theory Comput., 2019,
     15, 1652-1671. DOI: 10.1021/acs.jctc.8b01176
   for GFN1-xTB:
   * S. Grimme, C. Bannwarth, P. Shushkov, J. Chem. Theory Comput., 2017,
     13, 1989-2009. DOI: 10.1021/acs.jctc.7b00118
   for GFN0-xTB:
   * P. Pracht, E. Caldeweyher, S. Ehlert, S. Grimme, ChemRxiv, 2019, preprint.
     DOI: 10.26434/chemrxiv.8326202.v1
   for GFN-FF:
   * S. Spicher and S. Grimme, Angew. Chem. Int. Ed., 2020, 59, 15665-15673.
     DOI: 10.1002/anie.202004239
   
   for ALPB and GBSA implicit solvation:
   * S. Ehlert, M. Stahn, S. Spicher, S. Grimme, J. Chem. Theory Comput.,
     2021, 17, 4250-4261. DOI: 10.1021/acs.jctc.1c00471
   
   for ddCOSMO and CPCM-X implicit solvation:
   * M. Stahn, S. Ehlert, S. Grimme, J. Phys. Chem. A,
     2023, XX, XXXX-XXXX. DOI: 10.1021/acs.jpca.3c04382
   
   for DFT-D4:
   * E. Caldeweyher, C. Bannwarth and S. Grimme, J. Chem. Phys., 2017,
     147, 034112. DOI: 10.1063/1.4993215
   * E. Caldeweyher, S. Ehlert, A. Hansen, H. Neugebauer, S. Spicher,
     C. Bannwarth and S. Grimme, J. Chem. Phys., 2019, 150, 154122.
     DOI: 10.1063/1.5090222
   * E. Caldeweyher, J.-M. Mewes, S. Ehlert and S. Grimme, Phys. Chem. Chem. Phys.
     2020, 22, 8499-8512. DOI: 10.1039/D0CP00502A
   
   for sTDA-xTB:
   * S. Grimme and C. Bannwarth, J. Chem. Phys., 2016, 145, 054103.
     DOI: 10.1063/1.4959605
   
   in the mass-spec context:
   * V. Asgeirsson, C. Bauer and S. Grimme, Chem. Sci., 2017, 8, 4879.
     DOI: 10.1039/c7sc00601b
   * J. Koopman and S. Grimme, ACS Omega 2019, 4, 12, 15120-15133.
     DOI: 10.1021/acsomega.9b02011
   
   for metadynamics refer to:
   * S. Grimme, J. Chem. Theory Comput., 2019, 155, 2847-2862
     DOI: 10.1021/acs.jctc.9b00143
   
   for SPH calculations refer to:
   * S. Spicher and S. Grimme, J. Chem. Theory Comput., 2021, 17, 1701-1714
     DOI: 10.1021/acs.jctc.0c01306
   
   for ONIOM refer to:
   * C. Plett, A. Katbashev, S. Ehlert, S. Grimme, M. Bursch,
     Phys. Chem. Chem. Phys., 2023, 25, 17860-17868. DOI: 10.1039/D3CP02178E
   
   for DIPRO refer to:
   * J. Kohn, N. Gildemeister, S. Grimme, D. Fazzi, A. Hansen,
     J. Chem. Phys., 2023, just accepted.
   
   for PTB refer to:
   * S. Grimme, M. Mueller, A. Hansen, J. Chem. Phys., 2023, 158, 124111.
     DOI: 10.1063/5.0137838
   
   with help from (in alphabetical order)
   P. Atkinson, C. Bannwarth, F. Bohle, G. Brandenburg, E. Caldeweyher
   M. Checinski, S. Dohm, S. Ehlert, S. Ehrlich, I. Gerasimov, C. Hölzer
   A. Katbashev, J. Kohn, J. Koopman, C. Lavigne, S. Lehtola, F. März, M. Müller,
   F. Musil, H. Neugebauer, J. Pisarek, C. Plett, P. Pracht, F. Pultar,
   J. Seibert, P. Shushkov, S. Spicher, M. Stahn, M. Steiner, T. Strunk,
   J. Stückrath, T. Rose, and J. Unsleber
   
 * started run on 2026/10/07 at 23:01:21.344     
   ID    Z sym.   atoms
    1   10 Ne     1, 2

           -------------------------------------------------
          |                Calculation Setup                |
           -------------------------------------------------

          program call               : /workspace/.cochem-base-runtime/free-engines/xtb/xtb-dist/bin/xtb input.xyz --gfn 2 --chrg 0 --uhf 0 --json --opt vtight --grad
          coordinate file            : input.xyz
          omp threads                :                     2


molecular fragmentation (1/2 indicates fragments):
12
# atoms in fragment 1/2:     1     1
 fragment masses (1/2) :       20.18       20.18
CMA distance (Bohr)    :   6.199
constraining FC (au)   :  0.0500

           -------------------------------------------------
          |                 G F N 2 - x T B                 |
           -------------------------------------------------

        Reference                      10.1021/acs.jctc.8b01176
      * Hamiltonian:
        H0-scaling (s, p, d)           1.850000    2.230000    2.230000
        zeta-weighting                 0.500000
      * Dispersion:
        s8                             2.700000
        a1                             0.520000
        a2                             5.000000
        s9                             5.000000
      * Repulsion:
        kExp                           1.500000    1.000000
        rExp                           1.000000
      * Coulomb:
        alpha                          2.000000
        third order                    shell-resolved
        anisotropic                    true
        a3                             3.000000
        a5                             4.000000
        cn-shift                       1.200000
        cn-exp                         4.000000
        max-rad                        5.000000


          ...................................................
          :                      SETUP                      :
          :.................................................:
          :  # basis functions                  20          :
          :  # atomic orbitals                  18          :
          :  # shells                            6          :
          :  # electrons                        16          :
          :  max. iterations                   250          :
          :  Hamiltonian                  GFN2-xTB          :
          :  restarted?                      false          :
          :  GBSA solvation                  false          :
          :  PC potential                    false          :
          :  electronic temp.          300.0000000     K    :
          :  accuracy                    1.0000000          :
          :  -> integral cutoff          0.2500000E+02      :
          :  -> integral neglect         0.1000000E-07      :
          :  -> SCF convergence          0.1000000E-05 Eh   :
          :  -> wf. convergence          0.1000000E-03 e    :
          :  Broyden damping             0.4000000          :
          :  net charge                          0          :
          :  unpaired electrons                  0          :
          ...................................................

 iter      E             dE          RMSdq      gap      omega  full diag
   1    -11.8645008 -0.118645E+02  0.561E-04   13.20       0.0  T
   2    -11.8645008 -0.343512E-10  0.325E-04   13.20     217.5  T
   3    -11.8645008 -0.198952E-12  0.748E-05   13.20     945.8  T

   *** convergence criteria satisfied after 3 iterations ***

         #    Occupation            Energy/Eh            Energy/eV
      -------------------------------------------------------------
         1        2.0000           -0.9003892             -24.5008
         2        2.0000           -0.9003891             -24.5008
         3        2.0000           -0.6894251             -18.7602
         4        2.0000           -0.6886753             -18.7398
         5        2.0000           -0.6886753             -18.7398
         6        2.0000           -0.6885537             -18.7365
         7        2.0000           -0.6885537             -18.7365
         8        2.0000           -0.6878009             -18.7160 (HOMO)
         9                         -0.2028458              -5.5197 (LUMO)
        10                         -0.2028163              -5.5189
        11                         -0.2028163              -5.5189
        12                         -0.2028106              -5.5188
        13                         -0.2028106              -5.5188
       ...                                ...                  ...
        18                         -0.2027725              -5.5177
      -------------------------------------------------------------
                  HL-Gap            0.4849550 Eh           13.1963 eV
             Fermi-level           -0.4453233 Eh          -12.1179 eV

 SCC (total)                   0 d,  0 h,  0 min,  0.002 sec
 SCC setup                      ...        0 min,  0.000 sec (  4.196%)
 Dispersion                     ...        0 min,  0.000 sec (  3.237%)
 classical contributions        ...        0 min,  0.000 sec (  1.558%)
 integral evaluation            ...        0 min,  0.001 sec ( 43.181%)
 iterations                     ...        0 min,  0.001 sec ( 29.329%)
 molecular gradient             ...        0 min,  0.000 sec ( 14.864%)
 printout                       ...        0 min,  0.000 sec (  2.957%)

         :::::::::::::::::::::::::::::::::::::::::::::::::::::
         ::                     SUMMARY                     ::
         :::::::::::::::::::::::::::::::::::::::::::::::::::::
         :: total energy             -11.864500809667 Eh    ::
         :: gradient norm              0.000041192361 Eh/a0 ::
         :: HOMO-LUMO gap             13.196298529483 eV    ::
         ::.................................................::
         :: SCC energy               -11.864500809667 Eh    ::
         :: -> isotropic ES           -0.000000000000 Eh    ::
         :: -> anisotropic ES          0.000000000000 Eh    ::
         :: -> anisotropic XC         -0.000000000021 Eh    ::
         :: -> dispersion             -0.000068113688 Eh    ::
         :: repulsion energy           0.000000000000 Eh    ::
         :: add. restraining           0.000000000000 Eh    ::
         :: total charge              -0.000000000000 e     ::
         :::::::::::::::::::::::::::::::::::::::::::::::::::::

      ----------------------------------------------------------- 
     |                   =====================                   |
     |                        A N C O P T                        |
     |                   =====================                   |
     |               Approximate Normal Coordinate               |
     |                Rational Function Optimizer                |
      ----------------------------------------------------------- 
      ----------------------------------------------------------- 
     |                   =====================                   |
     |                        A N C O P T                        |
     |                   =====================                   |
     |               Approximate Normal Coordinate               |
     |                Rational Function Optimizer                |
      ----------------------------------------------------------- 

          ...................................................
          :                      SETUP                      :
          :.................................................:
          :   optimization level         verytight          :
          :   max. optcycles                   200          :
          :   ANC micro-cycles                  20          :
          :   degrees of freedom                 1          :
          :.................................................:
          :   RF solver                   davidson          :
          :   write xtbopt.log                true          :
          :   linear (good luck)              true          :
          :   energy convergence         0.1000000E-06 Eh   :
          :   grad. convergence          0.2000000E-03 Eh/α :
          :   maxmium RF displ.          1.0000000          :
          :   Hlow (freq-cutoff)         0.1000000E-01      :
          :   Hmax (freq-cutoff)         5.0000000          :
          :   S6 in model hess.         20.0000000          :
          ...................................................

generating ANC from exact Hessian ...
Using Lindh-Hessian (1995)
 Shifting diagonal of input Hessian by   9.345341718191390E-003
 Lowest  eigenvalues of input Hessian
    0.000000    0.000000    0.000000    0.000000    0.000000    0.010000
 Highest eigenvalues
    0.000000    0.000000    0.000000    0.000000    0.000000    0.010000
 

........................................................................
.............................. CYCLE    1 ..............................
........................................................................

 iter      E             dE          RMSdq      gap      omega  full diag
   1    -11.8645008 -0.118645E+02  0.442E-08   13.20       0.0  T
   2    -11.8645008 -0.355271E-14  0.265E-08   13.20  100000.0  T
   3    -11.8645008  0.532907E-14  0.630E-12   13.20  100000.0  T
     SCC iter.                  ...        0 min,  0.000 sec
     gradient                   ...        0 min,  0.000 sec
 * total energy  :   -11.8645008 Eh     change       -0.1776357E-13 Eh
   gradient norm :     0.0000412 Eh/α   predicted     0.0000000E+00 (-100.00%)
   displ. norm   :     0.0061788 α      lambda       -0.1736491E-06
   maximum displ.:     0.0061788 α      in ANC's #1, #1, #1, ...

   *** GEOMETRY OPTIMIZATION CONVERGED AFTER 1 ITERATIONS ***

------------------------------------------------------------------------
 total energy gain   :        -0.0000000 Eh       -0.0000 kcal/mol
 total RMSD          :         0.0000000 a0        0.0000 Å
 total power (kW/mol):        -0.0000000 (step)   -0.0000 (real)
------------------------------------------------------------------------

 ANCopt (total)                0 d,  0 h,  0 min,  0.001 sec
 optimizer setup                ...        0 min,  0.000 sec (  5.013%)
 model hessian                  ...        0 min,  0.000 sec (  1.603%)
 ANC generation                 ...        0 min,  0.000 sec (  2.875%)
 coordinate transformation      ...        0 min,  0.000 sec (  0.433%)
 single point calculation       ...        0 min,  0.001 sec ( 79.084%)
 optimization log               ...        0 min,  0.000 sec (  3.511%)
 hessian update                 ...        0 min,  0.000 sec (  0.102%)
 rational function              ...        0 min,  0.000 sec (  2.774%)

================
 final structure:
================
2
 xtb: 6.7.1 (edcfbbe)
Ne          -0.32328324000000        4.02083772000000        3.21736649000000
Ne           2.93488572000000        3.83211719000000        3.54638236000000
 
 Bond Distances (Angstroems)
 ---------------------------

 
 selected bond angles (degree)
 --------------------

 
 selected dihedral angles (degree)
 ---------------------------------

 
 CMA Distance (Angstroems)
 ---------------------------
R(CMA):  3.2802
           -------------------------------------------------
          |                Final Singlepoint                |
           -------------------------------------------------

          ...................................................
          :                      SETUP                      :
          :.................................................:
          :  # basis functions                  20          :
          :  # atomic orbitals                  18          :
          :  # shells                            6          :
          :  # electrons                        16          :
          :  max. iterations                   250          :
          :  Hamiltonian                  GFN2-xTB          :
          :  restarted?                      false          :
          :  GBSA solvation                  false          :
          :  PC potential                    false          :
          :  electronic temp.          300.0000000     K    :
          :  accuracy                    1.0000000          :
          :  -> integral cutoff          0.2500000E+02      :
          :  -> integral neglect         0.1000000E-07      :
          :  -> SCF convergence          0.1000000E-05 Eh   :
          :  -> wf. convergence          0.1000000E-03 e    :
          :  Broyden damping             0.4000000          :
          :  net charge                          0          :
          :  unpaired electrons                  0          :
          ...................................................

 iter      E             dE          RMSdq      gap      omega  full diag
   1    -11.8645008 -0.118645E+02  0.372E-12   13.20       0.0  T
   2    -11.8645008 -0.355271E-14  0.211E-12   13.20  100000.0  T
   3    -11.8645008  0.532907E-14  0.554E-13   13.20  100000.0  T

   *** convergence criteria satisfied after 3 iterations ***

         #    Occupation            Energy/Eh            Energy/eV
      -------------------------------------------------------------
         1        2.0000           -0.9003892             -24.5008
         2        2.0000           -0.9003891             -24.5008
         3        2.0000           -0.6894250             -18.7602
         4        2.0000           -0.6886753             -18.7398
         5        2.0000           -0.6886753             -18.7398
         6        2.0000           -0.6885538             -18.7365
         7        2.0000           -0.6885538             -18.7365
         8        2.0000           -0.6878008             -18.7160 (HOMO)
         9                         -0.2028458              -5.5197 (LUMO)
        10                         -0.2028163              -5.5189
        11                         -0.2028163              -5.5189
        12                         -0.2028106              -5.5188
        13                         -0.2028106              -5.5188
       ...                                ...                  ...
        18                         -0.2027724              -5.5177
      -------------------------------------------------------------
                  HL-Gap            0.4849550 Eh           13.1963 eV
             Fermi-level           -0.4453233 Eh          -12.1179 eV

 SCC (total)                   0 d,  0 h,  0 min,  0.001 sec
 SCC setup                      ...        0 min,  0.000 sec (  4.422%)
 Dispersion                     ...        0 min,  0.000 sec (  1.122%)
 classical contributions        ...        0 min,  0.000 sec (  4.592%)
 integral evaluation            ...        0 min,  0.000 sec ( 23.980%)
 iterations                     ...        0 min,  0.000 sec ( 29.558%)
 molecular gradient             ...        0 min,  0.000 sec ( 30.544%)
 printout                       ...        0 min,  0.000 sec (  4.422%)

         :::::::::::::::::::::::::::::::::::::::::::::::::::::
         ::                     SUMMARY                     ::
         :::::::::::::::::::::::::::::::::::::::::::::::::::::
         :: total energy             -11.864500809667 Eh    ::
         :: gradient norm              0.000041192386 Eh/a0 ::
         :: HOMO-LUMO gap             13.196298445431 eV    ::
         ::.................................................::
         :: SCC energy               -11.864500809667 Eh    ::
         :: -> isotropic ES           -0.000000000000 Eh    ::
         :: -> anisotropic ES          0.000000000000 Eh    ::
         :: -> anisotropic XC         -0.000000000021 Eh    ::
         :: -> dispersion             -0.000068113688 Eh    ::
         :: repulsion energy           0.000000000000 Eh    ::
         :: add. restraining           0.000000000000 Eh    ::
         :: total charge              -0.000000000000 e     ::
         :::::::::::::::::::::::::::::::::::::::::::::::::::::

           -------------------------------------------------
          |                Property Printout                |
           -------------------------------------------------

    * Orbital Energies and Occupations

         #    Occupation            Energy/Eh            Energy/eV
      -------------------------------------------------------------
         1        2.0000           -0.9003892             -24.5008
         2        2.0000           -0.9003891             -24.5008
         3        2.0000           -0.6894250             -18.7602
         4        2.0000           -0.6886753             -18.7398
         5        2.0000           -0.6886753             -18.7398
         6        2.0000           -0.6885538             -18.7365
         7        2.0000           -0.6885538             -18.7365
         8        2.0000           -0.6878008             -18.7160 (HOMO)
         9                         -0.2028458              -5.5197 (LUMO)
        10                         -0.2028163              -5.5189
        11                         -0.2028163              -5.5189
        12                         -0.2028106              -5.5188
        13                         -0.2028106              -5.5188
        14                         -0.2028099              -5.5187
        15                         -0.2028099              -5.5187
        16                         -0.2028032              -5.5186
        17                         -0.2028032              -5.5186
        18                         -0.2027724              -5.5177
      -------------------------------------------------------------
                  HL-Gap            0.4849550 Eh           13.1963 eV
             Fermi-level           -0.4453233 Eh          -12.1179 eV

     #   Z          covCN         q      C6AA      α(0)
     1  10 Ne       0.000    -0.000     6.322     2.623
     2  10 Ne       0.000    -0.000     6.322     2.623

 Mol. C6AA /au·bohr⁶  :         25.287650
 Mol. C8AA /au·bohr⁸  :        372.276380
 Mol. α(0) /au        :          5.245588


Wiberg/Mayer (AO) data.
largest (>0.10) Wiberg bond orders for each atom

 ---------------------------------------------------------------------------
     #   Z sym  total        # sym  WBO       # sym  WBO       # sym  WBO
 ---------------------------------------------------------------------------
     1  10 Ne  -0.000
     2  10 Ne  -0.000
 ---------------------------------------------------------------------------


molecular dipole:
                 x           y           z       tot (Debye)
 q only:        0.000      -0.000      -0.000
   full:        0.000       0.000       0.000       0.000
molecular quadrupole (traceless):
                xx          xy          yy          xz          yz          zz
 q only:        0.000       0.000      -0.000       0.000      -0.000      -0.000
  q+dip:       -0.000       0.000       0.000      -0.000       0.000       0.000
   full:        0.000      -0.000      -0.000       0.000      -0.000      -0.000

           -------------------------------------------------
          |                Geometry Summary                 |
           -------------------------------------------------

      molecular mass/u    :       40.3600928
   center of mass at/Å    :        1.3058014       3.9264778       3.3818747
  moments of inertia/u·Å² :       -0.3912014E-14   0.1085639E+03   0.1085639E+03
rotational constants/cm⁻¹ :       -0.4309195E+16   0.1552784E+00   0.1552784E+00


optimized geometry written to: xtbopt.xyz


           -------------------------------------------------
          | TOTAL ENERGY              -11.864500809667 Eh   |
          | GRADIENT NORM               0.000041192386 Eh/α |
          | HOMO-LUMO GAP              13.196298445431 eV   |
           -------------------------------------------------

------------------------------------------------------------------------
 * finished run on 2026/10/07 at 23:01:21.353     
------------------------------------------------------------------------
 total:
 * wall-time:     0 d,  0 h,  0 min,  0.008 sec
 *  cpu-time:     0 d,  0 h,  0 min,  0.016 sec
 * ratio c/w:     1.883 speedup
 SCF:
 * wall-time:     0 d,  0 h,  0 min,  0.002 sec
 *  cpu-time:     0 d,  0 h,  0 min,  0.003 sec
 * ratio c/w:     1.850 speedup
 ANC optimizer:
 * wall-time:     0 d,  0 h,  0 min,  0.002 sec
 *  cpu-time:     0 d,  0 h,  0 min,  0.004 sec
 * ratio c/w:     2.002 speedup

